(set-logic QF_S)
(declare-fun var0 () String)
(assert (RegexIn var0 (RegexConcat (RegexPlus (RegexUnion (Str2Reg "0") (Str2Reg "1"))) (RegexConcat (RegexUnion (RegexStar (Str2Reg "222")) (RegexStar (Str2Reg "3"))) (RegexConcat (RegexPlus (RegexPlus (Str2Reg "444"))) (RegexConcat (RegexPlus (RegexStar (Str2Reg "55"))) (RegexConcat (RegexPlus (RegexUnion (Str2Reg "666") (Str2Reg "77"))) (RegexConcat (RegexStar (RegexPlus (Str2Reg "888"))) (RegexConcat (RegexUnion (RegexStar (Str2Reg "999")) (RegexStar (Str2Reg "a"))) (RegexConcat (RegexPlus (RegexUnion (Str2Reg "bb") (Str2Reg "ccc"))) (RegexConcat (RegexPlus (RegexStar (Str2Reg "ddd"))) (RegexConcat (RegexUnion (RegexPlus (Str2Reg "ee")) (RegexPlus (Str2Reg "f"))) (RegexConcat (RegexStar (RegexStar (Str2Reg "g"))) (RegexConcat (RegexPlus (RegexStar (Str2Reg "hhh"))) (RegexConcat (RegexPlus (RegexUnion (Str2Reg "i") (Str2Reg "j"))) (RegexConcat (RegexPlus (RegexUnion (Str2Reg "k") (Str2Reg "lll"))) (RegexConcat (RegexPlus (RegexPlus (Str2Reg "mmm"))) (RegexConcat (RegexStar (RegexUnion (Str2Reg "nnn") (Str2Reg "ooo"))) (RegexConcat (RegexStar (RegexUnion (Str2Reg "p") (Str2Reg "qq"))) (RegexConcat (RegexUnion (RegexUnion (Str2Reg "rrr") (Str2Reg "s")) (RegexUnion (Str2Reg "tt") (Str2Reg "uu"))) (RegexConcat (RegexStar (RegexStar (Str2Reg "v"))) (RegexConcat (RegexPlus (RegexUnion (Str2Reg "w") (Str2Reg "xxx"))) (RegexConcat (RegexUnion (RegexStar (Str2Reg "y")) (RegexStar (Str2Reg "zz"))) (RegexConcat (RegexUnion (RegexPlus (Str2Reg "A")) (RegexPlus (Str2Reg "BB"))) (RegexConcat (RegexUnion (RegexStar (Str2Reg "C")) (RegexStar (Str2Reg "DDD"))) (RegexConcat (RegexStar (RegexStar (Str2Reg "EE"))) (RegexConcat (RegexUnion (RegexUnion (Str2Reg "F") (Str2Reg "GG")) (RegexUnion (Str2Reg "H") (Str2Reg "III"))) (RegexConcat (RegexPlus (RegexStar (Str2Reg "J"))) (RegexConcat (RegexPlus (RegexPlus (Str2Reg "KKK"))) (RegexConcat (RegexUnion (RegexUnion (Str2Reg "L") (Str2Reg "M")) (RegexUnion (Str2Reg "NN") (Str2Reg "O"))) (RegexConcat (RegexUnion (RegexPlus (Str2Reg "PPP")) (RegexPlus (Str2Reg "Q"))) (RegexConcat (RegexUnion (RegexUnion (Str2Reg "RR") (Str2Reg "SSS")) (RegexUnion (Str2Reg "T") (Str2Reg "UU"))) (RegexConcat (RegexUnion (RegexUnion (Str2Reg "V") (Str2Reg "WW")) (RegexUnion (Str2Reg "XXX") (Str2Reg "Y"))) (RegexConcat (RegexStar (RegexUnion (Str2Reg "Z") (Str2Reg "!!"))) (RegexConcat (RegexPlus (RegexUnion (Str2Reg "\"\"") (Str2Reg "##"))) (RegexConcat (RegexStar (RegexPlus (Str2Reg "$$"))) (RegexConcat (RegexUnion (RegexStar (Str2Reg "%")) (RegexStar (Str2Reg "&&"))) (RegexConcat (RegexPlus (RegexPlus (Str2Reg "'"))) (RegexConcat (RegexPlus (RegexStar (Str2Reg "((("))) (RegexConcat (RegexStar (RegexStar (Str2Reg "))"))) (RegexConcat (RegexPlus (RegexUnion (Str2Reg "*") (Str2Reg "++"))) (RegexConcat (RegexPlus (RegexPlus (Str2Reg ",,,"))) (RegexConcat (RegexStar (RegexStar (Str2Reg "-"))) (RegexConcat (RegexPlus (RegexUnion (Str2Reg "..") (Str2Reg "//"))) (RegexConcat (RegexStar (RegexPlus (Str2Reg ":::"))) (RegexConcat (RegexPlus (RegexStar (Str2Reg ";"))) (RegexConcat (RegexStar (RegexPlus (Str2Reg "<"))) (RegexConcat (RegexPlus (RegexStar (Str2Reg "="))) (RegexConcat (RegexPlus (RegexUnion (Str2Reg ">") (Str2Reg "??"))) (RegexConcat (RegexUnion (RegexStar (Str2Reg "@@@")) (RegexStar (Str2Reg "["))) (RegexConcat (RegexStar (RegexPlus (Str2Reg "\\"))) (RegexConcat (RegexStar (RegexUnion (Str2Reg "]]]") (Str2Reg "^^"))) (RegexConcat (RegexPlus (RegexPlus (Str2Reg "_"))) (RegexConcat (RegexStar (RegexPlus (Str2Reg "`"))) (RegexConcat (RegexStar (RegexStar (Str2Reg "{{"))) (RegexConcat (RegexUnion (RegexUnion (Str2Reg "|||") (Str2Reg "}")) (RegexUnion (Str2Reg "~~~") (Str2Reg "0"))) (RegexConcat (RegexStar (RegexStar (Str2Reg "1"))) (RegexConcat (RegexPlus (RegexPlus (Str2Reg "2"))) (RegexConcat (RegexStar (RegexPlus (Str2Reg "3"))) (RegexConcat (RegexPlus (RegexStar (Str2Reg "4"))) (RegexConcat (RegexStar (RegexPlus (Str2Reg "5"))) (RegexConcat (RegexStar (RegexPlus (Str2Reg "6"))) (RegexConcat (RegexUnion (RegexUnion (Str2Reg "7") (Str2Reg "88")) (RegexUnion (Str2Reg "99") (Str2Reg "a"))) (RegexConcat (RegexUnion (RegexUnion (Str2Reg "bb") (Str2Reg "ccc")) (RegexUnion (Str2Reg "dd") (Str2Reg "ee"))) (RegexConcat (RegexStar (RegexUnion (Str2Reg "fff") (Str2Reg "g"))) (RegexConcat (RegexStar (RegexStar (Str2Reg "h"))) (RegexConcat (RegexStar (RegexStar (Str2Reg "i"))) (RegexConcat (RegexUnion (RegexUnion (Str2Reg "j") (Str2Reg "k")) (RegexUnion (Str2Reg "l") (Str2Reg "m"))) (RegexConcat (RegexStar (RegexPlus (Str2Reg "nn"))) (RegexConcat (RegexPlus (RegexPlus (Str2Reg "oo"))) (RegexConcat (RegexPlus (RegexStar (Str2Reg "pp"))) (RegexConcat (RegexStar (RegexPlus (Str2Reg "qq"))) (RegexConcat (RegexStar (RegexPlus (Str2Reg "r"))) (RegexConcat (RegexStar (RegexStar (Str2Reg "sss"))) (RegexConcat (RegexUnion (RegexPlus (Str2Reg "ttt")) (RegexPlus (Str2Reg "uuu"))) (RegexConcat (RegexStar (RegexUnion (Str2Reg "vv") (Str2Reg "www"))) (RegexConcat (RegexUnion (RegexUnion (Str2Reg "xxx") (Str2Reg "yyy")) (RegexUnion (Str2Reg "zz") (Str2Reg "AA"))) (RegexConcat (RegexUnion (RegexUnion (Str2Reg "B") (Str2Reg "CC")) (RegexUnion (Str2Reg "DD") (Str2Reg "EE"))) (RegexConcat (RegexPlus (RegexUnion (Str2Reg "FFF") (Str2Reg "GG"))) (RegexConcat (RegexUnion (RegexStar (Str2Reg "HH")) (RegexStar (Str2Reg "II"))) (RegexConcat (RegexPlus (RegexPlus (Str2Reg "JJ"))) (RegexConcat (RegexStar (RegexStar (Str2Reg "KK"))) (RegexConcat (RegexStar (RegexStar (Str2Reg "L"))) (RegexConcat (RegexPlus (RegexStar (Str2Reg "MMM"))) (RegexConcat (RegexPlus (RegexPlus (Str2Reg "NNN"))) (RegexConcat (RegexStar (RegexStar (Str2Reg "O"))) (RegexConcat (RegexStar (RegexUnion (Str2Reg "PPP") (Str2Reg "Q"))) (RegexConcat (RegexStar (RegexUnion (Str2Reg "RRR") (Str2Reg "S"))) (RegexConcat (RegexStar (RegexPlus (Str2Reg "TT"))) (RegexConcat (RegexPlus (RegexPlus (Str2Reg "U"))) (RegexConcat (RegexStar (RegexStar (Str2Reg "V"))) (RegexConcat (RegexPlus (RegexStar (Str2Reg "W"))) (RegexConcat (RegexStar (RegexStar (Str2Reg "XX"))) (RegexConcat (RegexUnion (RegexPlus (Str2Reg "YYY")) (RegexPlus (Str2Reg "ZZ"))) (RegexConcat (RegexUnion (RegexPlus (Str2Reg "!!")) (RegexPlus (Str2Reg "\"\"\""))) (RegexConcat (RegexUnion (RegexUnion (Str2Reg "###") (Str2Reg "$$$")) (RegexUnion (Str2Reg "%%") (Str2Reg "&&&"))) (RegexConcat (RegexPlus (RegexStar (Str2Reg "'"))) (RegexConcat (RegexPlus (RegexStar (Str2Reg "((("))) (RegexConcat (RegexUnion (RegexUnion (Str2Reg "))") (Str2Reg "***")) (RegexUnion (Str2Reg "+++") (Str2Reg ",,,"))) (RegexConcat (RegexStar (RegexUnion (Str2Reg "--") (Str2Reg "."))) (RegexConcat (RegexStar (RegexStar (Str2Reg "//"))) (RegexConcat (RegexPlus (RegexStar (Str2Reg "::"))) (RegexConcat (RegexPlus (RegexStar (Str2Reg ";;;"))) (RegexConcat (RegexUnion (RegexPlus (Str2Reg "<<<")) (RegexPlus (Str2Reg "==="))) (RegexConcat (RegexUnion (RegexStar (Str2Reg ">")) (RegexStar (Str2Reg "???"))) (RegexConcat (RegexPlus (RegexUnion (Str2Reg "@@@") (Str2Reg "["))) (RegexConcat (RegexStar (RegexStar (Str2Reg "\\\\\\"))) (RegexConcat (RegexPlus (RegexUnion (Str2Reg "]]") (Str2Reg "^"))) (RegexConcat (RegexUnion (RegexStar (Str2Reg "_")) (RegexStar (Str2Reg "`"))) (RegexConcat (RegexStar (RegexUnion (Str2Reg "{") (Str2Reg "|"))) (RegexConcat (RegexStar (RegexPlus (Str2Reg "}"))) (RegexConcat (RegexStar (RegexUnion (Str2Reg "~~") (Str2Reg "00"))) (RegexConcat (RegexUnion (RegexPlus (Str2Reg "11")) (RegexPlus (Str2Reg "2"))) (RegexConcat (RegexPlus (RegexPlus (Str2Reg "333"))) (RegexConcat (RegexPlus (RegexPlus (Str2Reg "44"))) (RegexConcat (RegexPlus (RegexUnion (Str2Reg "5") (Str2Reg "666"))) (RegexConcat (RegexUnion (RegexStar (Str2Reg "77")) (RegexStar (Str2Reg "888"))) (RegexConcat (RegexUnion (RegexStar (Str2Reg "99")) (RegexStar (Str2Reg "aaa"))) (RegexConcat (RegexUnion (RegexStar (Str2Reg "b")) (RegexStar (Str2Reg "cc"))) (RegexConcat (RegexStar (RegexUnion (Str2Reg "d") (Str2Reg "ee"))) (RegexConcat (RegexStar (RegexStar (Str2Reg "ff"))) (RegexConcat (RegexPlus (RegexPlus (Str2Reg "ggg"))) (RegexConcat (RegexUnion (RegexStar (Str2Reg "h")) (RegexStar (Str2Reg "ii"))) (RegexConcat (RegexPlus (RegexPlus (Str2Reg "jj"))) (RegexConcat (RegexUnion (RegexPlus (Str2Reg "kk")) (RegexPlus (Str2Reg "ll"))) (RegexConcat (RegexUnion (RegexStar (Str2Reg "m")) (RegexStar (Str2Reg "nn"))) (RegexConcat (RegexPlus (RegexStar (Str2Reg "o"))) (RegexConcat (RegexStar (RegexStar (Str2Reg "ppp"))) (RegexConcat (RegexPlus (RegexUnion (Str2Reg "qqq") (Str2Reg "rrr"))) (RegexConcat (RegexStar (RegexUnion (Str2Reg "ss") (Str2Reg "ttt"))) (RegexConcat (RegexPlus (RegexPlus (Str2Reg "uuu"))) (RegexConcat (RegexStar (RegexUnion (Str2Reg "vv") (Str2Reg "www"))) (RegexConcat (RegexPlus (RegexUnion (Str2Reg "x") (Str2Reg "yy"))) (RegexConcat (RegexStar (RegexUnion (Str2Reg "z") (Str2Reg "AA"))) (RegexConcat (RegexUnion (RegexPlus (Str2Reg "B")) (RegexPlus (Str2Reg "CC"))) (RegexConcat (RegexPlus (RegexStar (Str2Reg "D"))) (RegexConcat (RegexUnion (RegexPlus (Str2Reg "EE")) (RegexPlus (Str2Reg "FFF"))) (RegexConcat (RegexPlus (RegexStar (Str2Reg "G"))) (RegexConcat (RegexPlus (RegexPlus (Str2Reg "HHH"))) (RegexConcat (RegexPlus (RegexUnion (Str2Reg "I") (Str2Reg "JJ"))) (RegexConcat (RegexPlus (RegexUnion (Str2Reg "KKK") (Str2Reg "LL"))) (RegexConcat (RegexUnion (RegexStar (Str2Reg "MM")) (RegexStar (Str2Reg "N"))) (RegexConcat (RegexUnion (RegexStar (Str2Reg "OO")) (RegexStar (Str2Reg "PP"))) (RegexConcat (RegexUnion (RegexPlus (Str2Reg "QQ")) (RegexPlus (Str2Reg "RRR"))) (RegexConcat (RegexStar (RegexPlus (Str2Reg "SSS"))) (RegexConcat (RegexUnion (RegexUnion (Str2Reg "TT") (Str2Reg "UUU")) (RegexUnion (Str2Reg "VVV") (Str2Reg "W"))) (RegexConcat (RegexUnion (RegexUnion (Str2Reg "XXX") (Str2Reg "YYY")) (RegexUnion (Str2Reg "ZZ") (Str2Reg "!!!"))) (RegexConcat (RegexStar (RegexPlus (Str2Reg "\""))) (RegexConcat (RegexPlus (RegexUnion (Str2Reg "#") (Str2Reg "$$$"))) (RegexConcat (RegexPlus (RegexStar (Str2Reg "%"))) (RegexConcat (RegexStar (RegexStar (Str2Reg "&&"))) (RegexConcat (RegexPlus (RegexPlus (Str2Reg "''"))) (RegexConcat (RegexStar (RegexUnion (Str2Reg "(") (Str2Reg "))"))) (RegexConcat (RegexStar (RegexStar (Str2Reg "*"))) (RegexConcat (RegexStar (RegexUnion (Str2Reg "+++") (Str2Reg ","))) (RegexConcat (RegexPlus (RegexUnion (Str2Reg "---") (Str2Reg ".."))) (RegexStar (RegexPlus (Str2Reg "//")))))))))))))))))))))))))))))))))))))))))))))))))))))))))))))))))))))))))))))))))))))))))))))))))))))))))))))))))))))))))))))))))))))))))))))))))))))))))))))))
(check-sat)